Route 1: 20 22 24 27 30 29 6 21 5 2 1 7 3 4 28 26 23 18 19 12 16 14 15 17 13 25 9 11 10 8 31

Route 2: 32 33 35 38 37 39 36 34 50 40 44 46 45 47 43 42 41 48

Route 3: 49

Vehicles: 3

Distance: 533.64

